27	3

10	10	10	

0	0	0	0	3	2	3	4	
1	3	5	2	2	5	6	
2	5	4	3	2	6	8	
1	5	2	2	3	6	7	8	
1	4	1	4	2	9	12	
2	5	5	4	2	9	10	
4	3	5	2	2	9	10	
7	2	4	4	3	9	10	11	
3	3	2	2	2	14	15	
3	3	2	4	2	14	16	
1	3	3	2	1	13	
2	4	1	4	1	13	
1	1	4	4	1	17	
4	2	2	2	1	19	
3	5	5	4	2	18	20	
8	1	5	4	1	18	
1	4	5	4	1	24	
1	3	2	3	1	22	
1	5	3	3	1	21	
7	2	4	6	1	23	
1	1	6	2	1	26	
1	3	2	1	1	25	
1	1	0	4	1	25	
3	2	2	1	1	25	
6	0	1	3	1	27	
5	2	2	2	1	27	
0	0	0	0	0	
